
Gurobi 6.5.2 (linux64) logging started Sun Sep 18 18:42:29 2016


Gurobi 6.5.2 (linux64) logging started Sun Sep 18 18:42:29 2016

Optimize a model with 101 rows, 908 columns and 1893 nonzeros
Coefficient statistics:
  Matrix range    [1e+00, 2e+00]
  Objective range [1e+00, 1e+02]
  Bounds range    [1e+00, 1e+00]
  RHS range       [1e+00, 1e+00]
Presolve removed 32 rows and 12 columns
Presolve time: 0.00s
Presolved: 69 rows, 896 columns, 1815 nonzeros
Variable types: 0 continuous, 896 integer (896 binary)

Root relaxation: objective 5.170000e+02, 79 iterations, 0.00 seconds

    Nodes    |    Current Node    |     Objective Bounds      |     Work
 Expl Unexpl |  Obj  Depth IntInf | Incumbent    BestBd   Gap | It/Node Time

     0     0  517.00000    0   14          -  517.00000      -     -    0s
     0     0  535.61111    0   43          -  535.61111      -     -    0s
     0     0  539.66667    0   35          -  539.66667      -     -    0s
     0     0  541.22222    0   36          -  541.22222      -     -    0s
     0     0  547.52381    0   44          -  547.52381      -     -    0s
     0     0  549.80000    0   38          -  549.80000      -     -    0s
     0     0  550.25000    0   35          -  550.25000      -     -    0s
     0     0  550.25000    0   40          -  550.25000      -     -    0s
     0     0  550.25000    0   40          -  550.25000      -     -    0s
     0     2  550.25000    0   39          -  550.25000      -     -    0s
*  505   369              55     628.0000000  552.66667  12.0%   4.4    0s
*  507   351              57     616.0000000  552.66667  10.3%   4.5    0s
*  704   463              43     610.0000000  552.66667  9.40%   4.3    0s
H 1044   708                     600.0000000  570.20774  4.97%   4.5    0s
H 1045   673                     596.0000000  570.20774  4.33%   4.5    0s
H 1045   639                     575.0000000  570.20774  0.83%   4.5    0s
H 1056   615                     573.0000000  570.34165  0.46%   4.6    1s

Cutting planes:
  Gomory: 19
  Cover: 16
  Clique: 1
  MIR: 1
  Flow cover: 4
  Zero half: 13
  Lazy constraints: 12

Explored 1134 nodes (5999 simplex iterations) in 1.50 seconds
Thread count was 8 (of 8 available processors)

Optimal solution found (tolerance 1.00e-04)
Best objective 5.730000000000e+02, best bound 5.730000000000e+02, gap 0.0%
